0000000000000000
0000000000000000
0000000000000000
0001111111111100
0000000000000100
0000000000000100
0000000000000100
0000000000000100
0000000111111100
0000011100000100
0000010000000100
0000110000000100
0000100000000100
0000100000000100
0000000000000100
0000000000000000
